min: c;

c = 2.67910237226354 * u1_t7_h4 + 4.05129991201991 * u1_t7_h5 + 3.54810070470264 * u1_t5_h6 + 3.54810070470264 * u1_t7_h6 + 4.57571005097082 * u1_t5_h7 + 4.57571005097082 * u1_t7_h7 + 4.57571005097082 * u1_t9_h7 + 5.79132212639558 * u1_t5_h8 + 5.79132212639558 * u1_t7_h8 + 5.79132212639558 * u1_t9_h8 + 5.79132212639558 * u1_t10_h8 + 4.76588599812779 * u1_t5_h9 + 4.76588599812779 * u1_t7_h9 + 4.76588599812779 * u1_t9_h9 + 4.76588599812779 * u1_t10_h9 + 5.40049306649208 * u1_t5_h10 + 5.40049306649208 * u1_t7_h10 + 5.40049306649208 * u1_t9_h10 + 5.40049306649208 * u1_t10_h10 + 3.97633607076077 * u1_t5_h11 + 3.97633607076077 * u1_t9_h11 + 3.97633607076077 * u1_t10_h11 + 6.64381460208346 * u1_t4_h12 + 6.64381460208346 * u1_t5_h12 + 6.64381460208346 * u1_t8_h12 + 6.64381460208346 * u1_t9_h12 + 6.64381460208346 * u1_t10_h12 + 4.67508325746046 * u1_t4_h13 + 4.67508325746046 * u1_t8_h13 + 4.67508325746046 * u1_t9_h13 + 4.67508325746046 * u1_t10_h13 + 5.04790570941994 * u1_t4_h14 + 5.04790570941994 * u1_t8_h14 + 5.04790570941994 * u1_t9_h14 + 5.04790570941994 * u1_t10_h14 + 6.20497011378062 * u1_t4_h15 + 6.20497011378062 * u1_t8_h15 + 5.66944012764069 * u1_t4_h16 + 5.66944012764069 * u1_t8_h16 + 6.75545470549669 * u1_t4_h17 + 6.75545470549669 * u1_t8_h17 + 6.55241284560354 * u1_t2_h18 + 6.55241284560354 * u1_t4_h18 + 6.55241284560354 * u1_t6_h18 + 6.55241284560354 * u1_t8_h18 + 5.82674037410558 * u1_t2_h19 + 5.82674037410558 * u1_t3_h19 + 5.82674037410558 * u1_t4_h19 + 5.82674037410558 * u1_t6_h19 + 6.04261734594422 * u1_t1_h20 + 6.04261734594422 * u1_t2_h20 + 6.04261734594422 * u1_t3_h20 + 6.04261734594422 * u1_t4_h20 + 6.04261734594422 * u1_t6_h20 + 5.05966048005336 * u1_t1_h21 + 5.05966048005336 * u1_t2_h21 + 5.05966048005336 * u1_t3_h21 + 5.18324742472157 * u1_t1_h22 + 5.18324742472157 * u1_t2_h22 + 5.20597370976574 * u1_t1_h23 + 5.20597370976574 * u1_t2_h23;
0 <= u1_t1_h20 <= 1;
0 <= u1_t1_h21 <= 1;
0 <= u1_t1_h22 <= 1;
0 <= u1_t1_h23 <= 1;
u1_t1_h20 + u1_t1_h21 + u1_t1_h22 + u1_t1_h23 = 1;
0 <= u1_t2_h18 <= 1;
0 <= u1_t2_h19 <= 1;
0 <= u1_t2_h20 <= 1;
0 <= u1_t2_h21 <= 1;
0 <= u1_t2_h22 <= 1;
0 <= u1_t2_h23 <= 1;
u1_t2_h18 + u1_t2_h19 + u1_t2_h20 + u1_t2_h21 + u1_t2_h22 + u1_t2_h23 = 2;
0 <= u1_t3_h19 <= 1;
0 <= u1_t3_h20 <= 1;
0 <= u1_t3_h21 <= 1;
u1_t3_h19 + u1_t3_h20 + u1_t3_h21 = 1;
0 <= u1_t4_h12 <= 1;
0 <= u1_t4_h13 <= 1;
0 <= u1_t4_h14 <= 1;
0 <= u1_t4_h15 <= 1;
0 <= u1_t4_h16 <= 1;
0 <= u1_t4_h17 <= 1;
0 <= u1_t4_h18 <= 1;
0 <= u1_t4_h19 <= 1;
0 <= u1_t4_h20 <= 1;
u1_t4_h12 + u1_t4_h13 + u1_t4_h14 + u1_t4_h15 + u1_t4_h16 + u1_t4_h17 + u1_t4_h18 + u1_t4_h19 + u1_t4_h20 = 3;
0 <= u1_t5_h6 <= 1;
0 <= u1_t5_h7 <= 1;
0 <= u1_t5_h8 <= 1;
0 <= u1_t5_h9 <= 1;
0 <= u1_t5_h10 <= 1;
0 <= u1_t5_h11 <= 1;
0 <= u1_t5_h12 <= 1;
u1_t5_h6 + u1_t5_h7 + u1_t5_h8 + u1_t5_h9 + u1_t5_h10 + u1_t5_h11 + u1_t5_h12 = 3;
0 <= u1_t6_h18 <= 1;
0 <= u1_t6_h19 <= 1;
0 <= u1_t6_h20 <= 1;
u1_t6_h18 + u1_t6_h19 + u1_t6_h20 = 2;
0 <= u1_t7_h4 <= 1;
0 <= u1_t7_h5 <= 1;
0 <= u1_t7_h6 <= 1;
0 <= u1_t7_h7 <= 1;
0 <= u1_t7_h8 <= 1;
0 <= u1_t7_h9 <= 1;
0 <= u1_t7_h10 <= 1;
u1_t7_h4 + u1_t7_h5 + u1_t7_h6 + u1_t7_h7 + u1_t7_h8 + u1_t7_h9 + u1_t7_h10 = 2;
0 <= u1_t8_h12 <= 1;
0 <= u1_t8_h13 <= 1;
0 <= u1_t8_h14 <= 1;
0 <= u1_t8_h15 <= 1;
0 <= u1_t8_h16 <= 1;
0 <= u1_t8_h17 <= 1;
0 <= u1_t8_h18 <= 1;
u1_t8_h12 + u1_t8_h13 + u1_t8_h14 + u1_t8_h15 + u1_t8_h16 + u1_t8_h17 + u1_t8_h18 = 2;
0 <= u1_t9_h7 <= 1;
0 <= u1_t9_h8 <= 1;
0 <= u1_t9_h9 <= 1;
0 <= u1_t9_h10 <= 1;
0 <= u1_t9_h11 <= 1;
0 <= u1_t9_h12 <= 1;
0 <= u1_t9_h13 <= 1;
0 <= u1_t9_h14 <= 1;
u1_t9_h7 + u1_t9_h8 + u1_t9_h9 + u1_t9_h10 + u1_t9_h11 + u1_t9_h12 + u1_t9_h13 + u1_t9_h14 = 3;
0 <= u1_t10_h8 <= 1;
0 <= u1_t10_h9 <= 1;
0 <= u1_t10_h10 <= 1;
0 <= u1_t10_h11 <= 1;
0 <= u1_t10_h12 <= 1;
0 <= u1_t10_h13 <= 1;
0 <= u1_t10_h14 <= 1;
u1_t10_h8 + u1_t10_h9 + u1_t10_h10 + u1_t10_h11 + u1_t10_h12 + u1_t10_h13 + u1_t10_h14 = 3;
